c Generated map
c Size: 8 * 8, weights in range: 1 to 10, walls: True, with ratio 0.05
c dim 10 of 10
c
p sp 64 102
c graph contains 64 nodes and 102 arcs
c
a 1 9 6
a 9 1 6
a 1 2 1
a 2 1 1
a 2 10 10
a 10 2 10
a 2 3 7
a 3 2 7
a 3 11 4
a 11 3 4
a 3 4 10
a 4 3 10
a 4 12 10
a 12 4 10
a 6 14 6
a 14 6 6
a 6 7 3
a 7 6 3
a 7 15 7
a 15 7 7
a 7 8 4
a 8 7 4
a 8 16 5
a 16 8 5
a 9 17 4
a 17 9 4
a 9 10 8
a 10 9 8
a 10 11 4
a 11 10 4
a 11 12 7
a 12 11 7
a 12 20 9
a 20 12 9
a 12 13 1
a 13 12 1
a 13 21 3
a 21 13 3
a 13 14 4
a 14 13 4
a 14 22 5
a 22 14 5
a 14 15 5
a 15 14 5
a 15 23 1
a 23 15 1
a 15 16 3
a 16 15 3
a 16 24 3
a 24 16 3
a 17 25 6
a 25 17 6
a 20 28 7
a 28 20 7
a 20 21 4
a 21 20 4
a 21 29 6
a 29 21 6
a 21 22 9
a 22 21 9
a 22 30 3
a 30 22 3
a 22 23 1
a 23 22 1
a 23 31 5
a 31 23 5
a 23 24 6
a 24 23 6
a 24 32 7
a 32 24 7
a 25 33 1
a 33 25 1
a 25 26 1
a 26 25 1
a 26 34 9
a 34 26 9
a 26 27 1
a 27 26 1
a 27 35 6
a 35 27 6
a 27 28 3
a 28 27 3
a 28 36 1
a 36 28 1
a 28 29 4
a 29 28 4
a 29 37 1
a 37 29 1
a 29 30 7
a 30 29 7
a 30 38 6
a 38 30 6
a 30 31 10
a 31 30 10
a 31 39 3
a 39 31 3
a 31 32 3
a 32 31 3
a 32 40 10
a 40 32 10
a 33 41 10
a 41 33 10
a 33 34 8
a 34 33 8
a 34 42 8
a 42 34 8
a 34 35 8
a 35 34 8
a 35 43 8
a 43 35 8
a 35 36 5
a 36 35 5
a 36 44 6
a 44 36 6
a 36 37 9
a 37 36 9
a 37 45 1
a 45 37 1
a 37 38 9
a 38 37 9
a 38 46 1
a 46 38 1
a 38 39 10
a 39 38 10
a 39 47 3
a 47 39 3
a 39 40 5
a 40 39 5
a 40 48 6
a 48 40 6
a 41 49 3
a 49 41 3
a 41 42 9
a 42 41 9
a 42 50 5
a 50 42 5
a 42 43 3
a 43 42 3
a 43 51 6
a 51 43 6
a 43 44 3
a 44 43 3
a 44 52 1
a 52 44 1
a 44 45 5
a 45 44 5
a 45 53 3
a 53 45 3
a 45 46 6
a 46 45 6
a 46 54 5
a 54 46 5
a 46 47 10
a 47 46 10
a 47 55 10
a 55 47 10
a 47 48 8
a 48 47 8
a 48 56 4
a 56 48 4
a 49 57 6
a 57 49 6
a 49 50 4
a 50 49 4
a 50 58 5
a 58 50 5
a 50 51 6
a 51 50 6
a 51 59 4
a 59 51 4
a 51 52 6
a 52 51 6
a 52 60 3
a 60 52 3
a 52 53 6
a 53 52 6
a 53 61 6
a 61 53 6
a 53 54 5
a 54 53 5
a 54 62 8
a 62 54 8
a 54 55 10
a 55 54 10
a 55 63 7
a 63 55 7
a 55 56 8
a 56 55 8
a 56 64 2
a 64 56 2
a 57 58 1
a 58 57 1
a 58 59 4
a 59 58 4
a 59 60 2
a 60 59 2
a 60 61 10
a 61 60 10
a 61 62 1
a 62 61 1
a 62 63 1
a 63 62 1
a 63 64 7
a 64 63 7
